g3 1 1 0	# problem unknown
 2 0 14 0 0 	# vars, constraints, objectives, ranges, eqns
 0 13 0 0 0 0	# nonlinear constrs, objs; ccons: lin, nonlin, nd, nzlb
 0 0	# network constraints: nonlinear, linear
 0 2 0 	# nonlinear vars in constraints, objectives, both
 0 0 0 1	# linear network variables; functions; arith, flags
 0 0 0 0 0 	# discrete variables: binary, integer, nonlinear (b,c,o)
 0 20 	# nonzeros in Jacobian, obj. gradient
 0 0	# max name lengths: constraints, variables
 0 0 0 0 0	# common exprs: b,c,o,c1,o1
O0 0
o0
o54
5
o43
v0
o2
n3.0
o43
v1
o2
n2.224
o43
o0
o16
o44
o2
n-4.0585856593352405
v1
n1
o2
n3.148
o43
o0
o16
o44
o2
n-9.776605187888352
v1
n1
o2
n0.9579
o43
o0
o16
o44
o2
n-17.829667620080876
v1
n1
n-6.59406093943886
O1 0
o3
n1
v0
O2 0
o16
o3
n1
o5
v0
n2
O3 0
o0
o54
4
o3
n3.0
v1
o2
n-17.829667620080876
o2
o16
o3
n0.9579
o0
o16
o44
o2
n-17.829667620080876
v1
n1
o44
o2
n-17.829667620080876
v1
o2
n-9.776605187888352
o2
o16
o3
n3.148
o0
o16
o44
o2
n-9.776605187888352
v1
n1
o44
o2
n-9.776605187888352
v1
o2
n-4.0585856593352405
o2
o16
o3
n2.224
o0
o16
o44
o2
n-4.0585856593352405
v1
n1
o44
o2
n-4.0585856593352405
v1
n5.60101151987913
O4 0
o54
4
o2
n-4.0585856593352405
o0
o2
o2
n4.0585856593352405
o3
n2.224
o0
o16
o44
o2
n-4.0585856593352405
v1
n1
o44
o2
n-4.0585856593352405
v1
o2
o3
o2
n9.026294506361575
o44
o2
n-4.0585856593352405
v1
o5
o0
o16
o44
o2
n-4.0585856593352405
v1
n1
n2
o44
o2
n-4.0585856593352405
v1
o2
n-9.776605187888352
o0
o2
o2
n9.776605187888352
o3
n3.148
o0
o16
o44
o2
n-9.776605187888352
v1
n1
o44
o2
n-9.776605187888352
v1
o2
o3
o2
n30.776753131472532
o44
o2
n-9.776605187888352
v1
o5
o0
o16
o44
o2
n-9.776605187888352
v1
n1
n2
o44
o2
n-9.776605187888352
v1
o2
n-17.829667620080876
o0
o2
o2
n17.829667620080876
o3
n0.9579
o0
o16
o44
o2
n-17.829667620080876
v1
n1
o44
o2
n-17.829667620080876
v1
o2
o3
o2
n17.079038613275472
o44
o2
n-17.829667620080876
v1
o5
o0
o16
o44
o2
n-17.829667620080876
v1
n1
n2
o44
o2
n-17.829667620080876
v1
o16
o3
n3.0
o5
v1
n2
O5 0
o54
20
o2
o2
n0.006132232
o5
v0
n4
v1
o2
o2
n1.7395866
v0
o5
v1
n0.382
o2
o2
n-2.2261792
v0
v1
o2
o2
n-0.30127553
o5
v0
n2
v1
o2
o2
n0.08967023
o5
v0
n3
o5
v1
n0.677
o2
o2
o2
n-0.076387037
o5
v0
n3
o5
v1
n2.915
o44
o16
o5
v0
n2
o2
o2
o2
n-0.84063963
o5
v0
n2
o5
v1
n3.51
o44
o16
o5
v0
n2
o2
o2
o2
n-0.27026327
o5
v0
n3
o5
v1
n1.063
o44
o2
n-1
v0
o2
o2
o2
n6.212578
v0
o5
v1
n0.655
o44
o0
o2
n-0.42776
o5
o0
v0
n0.0726
n2
o2
n-1.708
o5
o0
v1
n-1.036
n2
o2
o2
o2
n-5.7844357
v0
o5
v1
n1.3
o44
o0
o2
n-0.6424
o5
o0
v0
n0.1274
n2
o2
n-1.4865
o5
o0
v1
n-1.2777
n2
o2
o2
o2
n2.4817542
v0
o5
v1
n3.1
o44
o0
o2
n-0.8175
o5
o0
v0
n-0.7527
n2
o2
n-2.0915
o5
o0
v1
n-1.083
n2
o2
o2
o2
n-2.3739168
o5
v0
n2
o5
v1
n1.4395
o44
o0
o2
n-0.7995
o5
o0
v0
n-0.57
n2
o2
n-2.43
o5
o0
v1
n-1.2906
n2
o2
o2
o2
n0.01493697
o5
v0
n2
o5
v1
n1.623
o44
o0
o2
n-0.91
o5
o0
v0
n-2.2
n2
o2
n-0.488
o5
o0
v1
n-0.928
n2
o2
o2
o2
n-3.7749264
v0
o5
v1
n0.643
o44
o0
o2
n-0.3574
o5
o0
v0
n0.243
n2
o2
n-1.1
o5
o0
v1
n-0.934
n2
o2
o2
o2
n0.0006254348
o5
v0
n3
o5
v1
n1.13
o44
o0
o2
n-1.21
o5
o0
v0
n-2.96
n2
o2
n-0.85
o5
o0
v1
n-0.919
n2
o2
o2
o2
n-1.7359e-05
o5
v0
n3
o5
v1
n4.5
o44
o0
o2
n-4.14
o5
o0
v0
n-3.02
n2
o2
n-1.14
o5
o0
v1
n-1.852
n2
o2
o2
o2
n-0.13462033
v0
v1
o44
o0
o2
n-22.56
o5
o0
v0
n-0.9574
n2
o2
n-945.64
o5
o0
v1
n-1.05897
n2
o2
o2
o2
n0.07749072839
v0
o5
v1
n4.0
o44
o0
o2
n-2.68
o5
o0
v0
n-0.9576
n2
o2
n-993.85
o5
o0
v1
n-1.05277
n2
o2
o2
o2
n-1.6909858
v0
o5
v1
n4.3315
o44
o0
o2
n-2.8452
o5
o0
v0
n-0.4478
n2
o3
n1
o0
o2
n0.3696
o5
o0
v1
n-1.108
n2
n1.244
o2
o2
o2
n0.93739074
v0
o5
v1
n4.015
o44
o0
o2
n-2.8342
o5
o0
v0
n-0.44689
n2
o3
n1
o0
o2
n0.2962
o5
o0
v1
n-1.313
n2
n0.6826
O6 0
o54
34
o2
o2
n0.26901069
o5
v1
n0.677
o5
v0
n2
o2
o2
n-0.60255106
v1
v0
o2
n1.7395866
o5
v1
n0.382
o2
o2
n0.024528928
v1
o5
v0
n3
o16
o2
o2
o2
n-0.27026327
o5
v0
n3
o5
v1
n1.063
o44
o2
n-1
v0
o2
o2
n-0.8107898099999999
o2
o44
o2
n-1
v0
o5
v1
n1.063
o5
v0
n2
o2
o2
n-2
o2
o2
o2
n-0.84063963
o5
v0
n2
o5
v1
n3.51
o44
o16
o5
v0
n2
v0
o2
o2
n-1.68127926
o2
o44
o16
o5
v0
n2
o5
v1
n3.51
v0
o2
o2
n-2
o2
o2
o2
n-0.076387037
o5
v0
n3
o5
v1
n2.915
o44
o16
o5
v0
n2
v0
o2
o2
n-0.22916111100000003
o2
o44
o16
o5
v0
n2
o5
v1
n2.915
o5
v0
n2
o2
o2
n-5.36
o2
o2
o2
n0.07749072839
v0
o5
v1
n4.0
o44
o0
o2
n-2.68
o5
o0
v0
n-0.9576
n2
o2
n-993.85
o5
o0
v1
n-1.05277
n2
o0
v0
n-0.9576
o2
n0.07749072839
o2
o44
o0
o2
n-2.68
o5
o0
v0
n-0.9576
n2
o2
n-993.85
o5
o0
v1
n-1.05277
n2
o5
v1
n4.0
o2
o2
n-45.12
o2
o2
o2
n-0.13462033
v0
v1
o44
o0
o2
n-22.56
o5
o0
v0
n-0.9574
n2
o2
n-945.64
o5
o0
v1
n-1.05897
n2
o0
v0
n-0.9574
o2
n-0.13462033
o2
o44
o0
o2
n-22.56
o5
o0
v0
n-0.9574
n2
o2
n-945.64
o5
o0
v1
n-1.05897
n2
v1
o2
o2
n-8.28
o2
o2
o2
n-1.7359e-05
o5
v0
n3
o5
v1
n4.5
o44
o0
o2
n-4.14
o5
o0
v0
n-3.02
n2
o2
n-1.14
o5
o0
v1
n-1.852
n2
o0
v0
n-3.02
o2
o2
n-5.2077e-05
o2
o44
o0
o2
n-4.14
o5
o0
v0
n-3.02
n2
o2
n-1.14
o5
o0
v1
n-1.852
n2
o5
v1
n4.5
o5
v0
n2
o2
o2
n-2.42
o2
o2
o2
n0.0006254348
o5
v0
n3
o5
v1
n1.13
o44
o0
o2
n-1.21
o5
o0
v0
n-2.96
n2
o2
n-0.85
o5
o0
v1
n-0.919
n2
o0
v0
n-2.96
o2
o2
n0.0018763043999999998
o2
o44
o0
o2
n-1.21
o5
o0
v0
n-2.96
n2
o2
n-0.85
o5
o0
v1
n-0.919
n2
o5
v1
n1.13
o5
v0
n2
o2
o2
n-0.7148
o2
o2
o2
n-3.7749264
v0
o5
v1
n0.643
o44
o0
o2
n-0.3574
o5
o0
v0
n0.243
n2
o2
n-1.1
o5
o0
v1
n-0.934
n2
o0
v0
n0.243
o2
n-3.7749264
o2
o44
o0
o2
n-0.3574
o5
o0
v0
n0.243
n2
o2
n-1.1
o5
o0
v1
n-0.934
n2
o5
v1
n0.643
o2
o2
n-1.82
o2
o2
o2
n0.01493697
o5
v0
n2
o5
v1
n1.623
o44
o0
o2
n-0.91
o5
o0
v0
n-2.2
n2
o2
n-0.488
o5
o0
v1
n-0.928
n2
o0
v0
n-2.2
o2
o2
n0.02987394
o2
o44
o0
o2
n-0.91
o5
o0
v0
n-2.2
n2
o2
n-0.488
o5
o0
v1
n-0.928
n2
o5
v1
n1.623
v0
o2
o2
n-1.599
o2
o2
o2
n-2.3739168
o5
v0
n2
o5
v1
n1.4395
o44
o0
o2
n-0.7995
o5
o0
v0
n-0.57
n2
o2
n-2.43
o5
o0
v1
n-1.2906
n2
o0
v0
n-0.57
o2
o2
n-4.7478336
o2
o44
o0
o2
n-0.7995
o5
o0
v0
n-0.57
n2
o2
n-2.43
o5
o0
v1
n-1.2906
n2
o5
v1
n1.4395
v0
o2
o2
n-1.635
o2
o2
o2
n2.4817542
v0
o5
v1
n3.1
o44
o0
o2
n-0.8175
o5
o0
v0
n-0.7527
n2
o2
n-2.0915
o5
o0
v1
n-1.083
n2
o0
v0
n-0.7527
o2
n2.4817542
o2
o44
o0
o2
n-0.8175
o5
o0
v0
n-0.7527
n2
o2
n-2.0915
o5
o0
v1
n-1.083
n2
o5
v1
n3.1
o2
o2
n-1.2848
o2
o2
o2
n-5.7844357
v0
o5
v1
n1.3
o44
o0
o2
n-0.6424
o5
o0
v0
n0.1274
n2
o2
n-1.4865
o5
o0
v1
n-1.2777
n2
o0
v0
n0.1274
o2
n-5.7844357
o2
o44
o0
o2
n-0.6424
o5
o0
v0
n0.1274
n2
o2
n-1.4865
o5
o0
v1
n-1.2777
n2
o5
v1
n1.3
o2
o2
n-0.85552
o2
o2
o2
n6.212578
v0
o5
v1
n0.655
o44
o0
o2
n-0.42776
o5
o0
v0
n0.0726
n2
o2
n-1.708
o5
o0
v1
n-1.036
n2
o0
v0
n0.0726
o2
n6.212578
o2
o44
o0
o2
n-0.42776
o5
o0
v0
n0.0726
n2
o2
n-1.708
o5
o0
v1
n-1.036
n2
o5
v1
n0.655
o2
o2
n-5.6684
o2
o2
o2
n0.93739074
v0
o5
v1
n4.015
o44
o0
o2
n-2.8342
o5
o0
v0
n-0.44689
n2
o3
n1
o0
o2
n0.2962
o5
o0
v1
n-1.313
n2
n0.6826
o0
v0
n-0.44689
o2
n0.93739074
o2
o44
o0
o2
n-2.8342
o5
o0
v0
n-0.44689
n2
o3
n1
o0
o2
n0.2962
o5
o0
v1
n-1.313
n2
n0.6826
o5
v1
n4.015
o2
o2
n-5.6904
o2
o2
o2
n-1.6909858
v0
o5
v1
n4.3315
o44
o0
o2
n-2.8452
o5
o0
v0
n-0.4478
n2
o3
n1
o0
o2
n0.3696
o5
o0
v1
n-1.108
n2
n1.244
o0
v0
n-0.4478
o2
n-1.6909858
o2
o44
o0
o2
n-2.8452
o5
o0
v0
n-0.4478
n2
o3
n1
o0
o2
n0.3696
o5
o0
v1
n-1.108
n2
n1.244
o5
v1
n4.3315
O7 0
o54
53
o2
o2
n0.07358678399999999
v1
o5
v0
n2
o2
o2
n0.53802138
o5
v1
n0.677
v0
o2
o2
n-0.45832222200000006
o2
o44
o16
o5
v0
n2
o5
v1
n2.915
v0
o2
n-2
o2
o2
o2
n-0.076387037
o5
v0
n3
o5
v1
n2.915
o44
o16
o5
v0
n2
o2
o2
n-2
o0
o2
o2
o2
n-0.22916111100000003
o5
v0
n2
o5
v1
n2.915
o44
o16
o5
v0
n2
o2
o2
o2
n-2
v0
o2
o2
n-0.076387037
o5
v0
n3
o5
v1
n2.915
o44
o16
o5
v0
n2
v0
o2
o2
n-0.22916111100000003
o2
o2
o2
n-2
v0
o44
o16
o5
v0
n2
o5
v1
n2.915
o5
v0
n2
o2
n-1.68127926
o2
o44
o16
o5
v0
n2
o5
v1
n3.51
o2
n-2
o2
o2
o2
n-0.84063963
o5
v0
n2
o5
v1
n3.51
o44
o16
o5
v0
n2
o2
o2
n-2
o0
o2
o2
o2
n-1.68127926
v0
o5
v1
n3.51
o44
o16
o5
v0
n2
o2
o2
o2
n-2
v0
o2
o2
n-0.84063963
o5
v0
n2
o5
v1
n3.51
o44
o16
o5
v0
n2
v0
o2
o2
n-1.68127926
o2
o2
o2
n-2
v0
o44
o16
o5
v0
n2
o5
v1
n3.51
v0
o2
o2
n-1.6215796199999999
o2
o44
o2
n-1
v0
o5
v1
n1.063
v0
o16
o0
o2
o2
o2
n-0.8107898099999999
o5
v0
n2
o5
v1
n1.063
o44
o2
n-1
v0
o2
o16
o2
o2
n-0.27026327
o5
v0
n3
o5
v1
n1.063
o44
o2
n-1
v0
o2
o2
n-0.8107898099999999
o2
o16
o44
o2
n-1
v0
o5
v1
n1.063
o5
v0
n2
o2
n-0.85552
o2
o2
o2
n6.212578
v0
o5
v1
n0.655
o44
o0
o2
n-0.42776
o5
o0
v0
n0.0726
n2
o2
n-1.708
o5
o0
v1
n-1.036
n2
o2
o2
n-0.85552
o0
o2
o2
n6.212578
o5
v1
n0.655
o44
o0
o2
n-0.42776
o5
o0
v0
n0.0726
n2
o2
n-1.708
o5
o0
v1
n-1.036
n2
o2
o2
o2
n-0.85552
o0
v0
n0.0726
o2
o2
n6.212578
v0
o5
v1
n0.655
o44
o0
o2
n-0.42776
o5
o0
v0
n0.0726
n2
o2
n-1.708
o5
o0
v1
n-1.036
n2
o0
v0
n0.0726
o2
n6.212578
o2
o2
o2
n-0.85552
o0
v0
n0.0726
o44
o0
o2
n-0.42776
o5
o0
v0
n0.0726
n2
o2
n-1.708
o5
o0
v1
n-1.036
n2
o5
v1
n0.655
o2
n-1.2848
o2
o2
o2
n-5.7844357
v0
o5
v1
n1.3
o44
o0
o2
n-0.6424
o5
o0
v0
n0.1274
n2
o2
n-1.4865
o5
o0
v1
n-1.2777
n2
o2
o2
n-1.2848
o0
o2
o2
n-5.7844357
o5
v1
n1.3
o44
o0
o2
n-0.6424
o5
o0
v0
n0.1274
n2
o2
n-1.4865
o5
o0
v1
n-1.2777
n2
o2
o2
o2
n-1.2848
o0
v0
n0.1274
o2
o2
n-5.7844357
v0
o5
v1
n1.3
o44
o0
o2
n-0.6424
o5
o0
v0
n0.1274
n2
o2
n-1.4865
o5
o0
v1
n-1.2777
n2
o0
v0
n0.1274
o2
n-5.7844357
o2
o2
o2
n-1.2848
o0
v0
n0.1274
o44
o0
o2
n-0.6424
o5
o0
v0
n0.1274
n2
o2
n-1.4865
o5
o0
v1
n-1.2777
n2
o5
v1
n1.3
o2
n-1.635
o2
o2
o2
n2.4817542
v0
o5
v1
n3.1
o44
o0
o2
n-0.8175
o5
o0
v0
n-0.7527
n2
o2
n-2.0915
o5
o0
v1
n-1.083
n2
o2
o2
n-1.635
o0
o2
o2
n2.4817542
o5
v1
n3.1
o44
o0
o2
n-0.8175
o5
o0
v0
n-0.7527
n2
o2
n-2.0915
o5
o0
v1
n-1.083
n2
o2
o2
o2
n-1.635
o0
v0
n-0.7527
o2
o2
n2.4817542
v0
o5
v1
n3.1
o44
o0
o2
n-0.8175
o5
o0
v0
n-0.7527
n2
o2
n-2.0915
o5
o0
v1
n-1.083
n2
o0
v0
n-0.7527
o2
n2.4817542
o2
o2
o2
n-1.635
o0
v0
n-0.7527
o44
o0
o2
n-0.8175
o5
o0
v0
n-0.7527
n2
o2
n-2.0915
o5
o0
v1
n-1.083
n2
o5
v1
n3.1
o2
n-4.7478336
o2
o44
o0
o2
n-0.7995
o5
o0
v0
n-0.57
n2
o2
n-2.43
o5
o0
v1
n-1.2906
n2
o5
v1
n1.4395
o2
n-1.599
o2
o2
o2
n-2.3739168
o5
v0
n2
o5
v1
n1.4395
o44
o0
o2
n-0.7995
o5
o0
v0
n-0.57
n2
o2
n-2.43
o5
o0
v1
n-1.2906
n2
o2
o2
n-1.599
o0
o2
o2
o2
n-4.7478336
v0
o5
v1
n1.4395
o44
o0
o2
n-0.7995
o5
o0
v0
n-0.57
n2
o2
n-2.43
o5
o0
v1
n-1.2906
n2
o2
o2
o2
n-1.599
o0
v0
n-0.57
o2
o2
n-2.3739168
o5
v0
n2
o5
v1
n1.4395
o44
o0
o2
n-0.7995
o5
o0
v0
n-0.57
n2
o2
n-2.43
o5
o0
v1
n-1.2906
n2
o0
v0
n-0.57
o2
o2
n-4.7478336
o2
o2
o2
n-1.599
o0
v0
n-0.57
o44
o0
o2
n-0.7995
o5
o0
v0
n-0.57
n2
o2
n-2.43
o5
o0
v1
n-1.2906
n2
o5
v1
n1.4395
v0
o2
n0.02987394
o2
o44
o0
o2
n-0.91
o5
o0
v0
n-2.2
n2
o2
n-0.488
o5
o0
v1
n-0.928
n2
o5
v1
n1.623
o2
n-1.82
o2
o2
o2
n0.01493697
o5
v0
n2
o5
v1
n1.623
o44
o0
o2
n-0.91
o5
o0
v0
n-2.2
n2
o2
n-0.488
o5
o0
v1
n-0.928
n2
o2
o2
n-1.82
o0
o2
o2
o2
n0.02987394
v0
o5
v1
n1.623
o44
o0
o2
n-0.91
o5
o0
v0
n-2.2
n2
o2
n-0.488
o5
o0
v1
n-0.928
n2
o2
o2
o2
n-1.82
o0
v0
n-2.2
o2
o2
n0.01493697
o5
v0
n2
o5
v1
n1.623
o44
o0
o2
n-0.91
o5
o0
v0
n-2.2
n2
o2
n-0.488
o5
o0
v1
n-0.928
n2
o0
v0
n-2.2
o2
o2
n0.02987394
o2
o2
o2
n-1.82
o0
v0
n-2.2
o44
o0
o2
n-0.91
o5
o0
v0
n-2.2
n2
o2
n-0.488
o5
o0
v1
n-0.928
n2
o5
v1
n1.623
v0
o2
n-0.7148
o2
o2
o2
n-3.7749264
v0
o5
v1
n0.643
o44
o0
o2
n-0.3574
o5
o0
v0
n0.243
n2
o2
n-1.1
o5
o0
v1
n-0.934
n2
o2
o2
n-0.7148
o0
o2
o2
n-3.7749264
o5
v1
n0.643
o44
o0
o2
n-0.3574
o5
o0
v0
n0.243
n2
o2
n-1.1
o5
o0
v1
n-0.934
n2
o2
o2
o2
n-0.7148
o0
v0
n0.243
o2
o2
n-3.7749264
v0
o5
v1
n0.643
o44
o0
o2
n-0.3574
o5
o0
v0
n0.243
n2
o2
n-1.1
o5
o0
v1
n-0.934
n2
o0
v0
n0.243
o2
n-3.7749264
o2
o2
o2
n-0.7148
o0
v0
n0.243
o44
o0
o2
n-0.3574
o5
o0
v0
n0.243
n2
o2
n-1.1
o5
o0
v1
n-0.934
n2
o5
v1
n0.643
o2
o2
n0.0037526087999999996
o2
o44
o0
o2
n-1.21
o5
o0
v0
n-2.96
n2
o2
n-0.85
o5
o0
v1
n-0.919
n2
o5
v1
n1.13
v0
o2
n-2.42
o2
o2
o2
n0.0006254348
o5
v0
n3
o5
v1
n1.13
o44
o0
o2
n-1.21
o5
o0
v0
n-2.96
n2
o2
n-0.85
o5
o0
v1
n-0.919
n2
o2
o2
n-2.42
o0
o2
o2
o2
n0.0018763043999999998
o5
v0
n2
o5
v1
n1.13
o44
o0
o2
n-1.21
o5
o0
v0
n-2.96
n2
o2
n-0.85
o5
o0
v1
n-0.919
n2
o2
o2
o2
n-2.42
o0
v0
n-2.96
o2
o2
n0.0006254348
o5
v0
n3
o5
v1
n1.13
o44
o0
o2
n-1.21
o5
o0
v0
n-2.96
n2
o2
n-0.85
o5
o0
v1
n-0.919
n2
o0
v0
n-2.96
o2
o2
n0.0018763043999999998
o2
o2
o2
n-2.42
o0
v0
n-2.96
o44
o0
o2
n-1.21
o5
o0
v0
n-2.96
n2
o2
n-0.85
o5
o0
v1
n-0.919
n2
o5
v1
n1.13
o5
v0
n2
o2
o2
n-0.000104154
o2
o44
o0
o2
n-4.14
o5
o0
v0
n-3.02
n2
o2
n-1.14
o5
o0
v1
n-1.852
n2
o5
v1
n4.5
v0
o2
n-8.28
o2
o2
o2
n-1.7359e-05
o5
v0
n3
o5
v1
n4.5
o44
o0
o2
n-4.14
o5
o0
v0
n-3.02
n2
o2
n-1.14
o5
o0
v1
n-1.852
n2
o2
o2
n-8.28
o0
o2
o2
o2
n-5.2077e-05
o5
v0
n2
o5
v1
n4.5
o44
o0
o2
n-4.14
o5
o0
v0
n-3.02
n2
o2
n-1.14
o5
o0
v1
n-1.852
n2
o2
o2
o2
n-8.28
o0
v0
n-3.02
o2
o2
n-1.7359e-05
o5
v0
n3
o5
v1
n4.5
o44
o0
o2
n-4.14
o5
o0
v0
n-3.02
n2
o2
n-1.14
o5
o0
v1
n-1.852
n2
o0
v0
n-3.02
o2
o2
n-5.2077e-05
o2
o2
o2
n-8.28
o0
v0
n-3.02
o44
o0
o2
n-4.14
o5
o0
v0
n-3.02
n2
o2
n-1.14
o5
o0
v1
n-1.852
n2
o5
v1
n4.5
o5
v0
n2
o2
n-45.12
o2
o2
o2
n-0.13462033
v0
v1
o44
o0
o2
n-22.56
o5
o0
v0
n-0.9574
n2
o2
n-945.64
o5
o0
v1
n-1.05897
n2
o2
o2
n-45.12
o0
o2
o2
n-0.13462033
v1
o44
o0
o2
n-22.56
o5
o0
v0
n-0.9574
n2
o2
n-945.64
o5
o0
v1
n-1.05897
n2
o2
o2
o2
n-45.12
o0
v0
n-0.9574
o2
o2
n-0.13462033
v0
v1
o44
o0
o2
n-22.56
o5
o0
v0
n-0.9574
n2
o2
n-945.64
o5
o0
v1
n-1.05897
n2
o0
v0
n-0.9574
o2
n-0.13462033
o2
o2
o2
n-45.12
o0
v0
n-0.9574
o44
o0
o2
n-22.56
o5
o0
v0
n-0.9574
n2
o2
n-945.64
o5
o0
v1
n-1.05897
n2
v1
o2
n-5.36
o2
o2
o2
n0.07749072839
v0
o5
v1
n4.0
o44
o0
o2
n-2.68
o5
o0
v0
n-0.9576
n2
o2
n-993.85
o5
o0
v1
n-1.05277
n2
o2
o2
n-5.36
o0
o2
o2
n0.07749072839
o5
v1
n4.0
o44
o0
o2
n-2.68
o5
o0
v0
n-0.9576
n2
o2
n-993.85
o5
o0
v1
n-1.05277
n2
o2
o2
o2
n-5.36
o0
v0
n-0.9576
o2
o2
n0.07749072839
v0
o5
v1
n4.0
o44
o0
o2
n-2.68
o5
o0
v0
n-0.9576
n2
o2
n-993.85
o5
o0
v1
n-1.05277
n2
o0
v0
n-0.9576
o2
n0.07749072839
o2
o2
o2
n-5.36
o0
v0
n-0.9576
o44
o0
o2
n-2.68
o5
o0
v0
n-0.9576
n2
o2
n-993.85
o5
o0
v1
n-1.05277
n2
o5
v1
n4.0
o2
n-5.6904
o2
o2
o2
n-1.6909858
v0
o5
v1
n4.3315
o44
o0
o2
n-2.8452
o5
o0
v0
n-0.4478
n2
o3
n1
o0
o2
n0.3696
o5
o0
v1
n-1.108
n2
n1.244
o2
o2
n-5.6904
o0
o2
o2
n-1.6909858
o5
v1
n4.3315
o44
o0
o2
n-2.8452
o5
o0
v0
n-0.4478
n2
o3
n1
o0
o2
n0.3696
o5
o0
v1
n-1.108
n2
n1.244
o2
o2
o2
n-5.6904
o0
v0
n-0.4478
o2
o2
n-1.6909858
v0
o5
v1
n4.3315
o44
o0
o2
n-2.8452
o5
o0
v0
n-0.4478
n2
o3
n1
o0
o2
n0.3696
o5
o0
v1
n-1.108
n2
n1.244
o0
v0
n-0.4478
o2
n-1.6909858
o2
o2
o2
n-5.6904
o0
v0
n-0.4478
o44
o0
o2
n-2.8452
o5
o0
v0
n-0.4478
n2
o3
n1
o0
o2
n0.3696
o5
o0
v1
n-1.108
n2
n1.244
o5
v1
n4.3315
o2
n-5.6684
o2
o2
o2
n0.93739074
v0
o5
v1
n4.015
o44
o0
o2
n-2.8342
o5
o0
v0
n-0.44689
n2
o3
n1
o0
o2
n0.2962
o5
o0
v1
n-1.313
n2
n0.6826
o2
o2
n-5.6684
o0
o2
o2
n0.93739074
o5
v1
n4.015
o44
o0
o2
n-2.8342
o5
o0
v0
n-0.44689
n2
o3
n1
o0
o2
n0.2962
o5
o0
v1
n-1.313
n2
n0.6826
o2
o2
o2
n-5.6684
o0
v0
n-0.44689
o2
o2
n0.93739074
v0
o5
v1
n4.015
o44
o0
o2
n-2.8342
o5
o0
v0
n-0.44689
n2
o3
n1
o0
o2
n0.2962
o5
o0
v1
n-1.313
n2
n0.6826
o0
v0
n-0.44689
o2
n0.93739074
o2
o2
o2
n-5.6684
o0
v0
n-0.44689
o44
o0
o2
n-2.8342
o5
o0
v0
n-0.44689
n2
o3
n1
o0
o2
n0.2962
o5
o0
v1
n-1.313
n2
n0.6826
o5
v1
n4.015
O8 0
o54
31
o2
o2
n0.06070674571000001
o5
v0
n3
o5
v1
n-0.32299999999999995
o2
n-0.30127553
o5
v0
n2
o2
o2
n0.6645220812
v0
o5
v1
n-0.618
o2
n0.006132232
o5
v0
n4
o2
o2
n1.063
o2
o44
o2
n-1
v0
o2
n-0.27026327
o5
v0
n3
o5
v1
n0.06299999999999994
o2
o2
n3.51
o2
o44
o16
o5
v0
n2
o2
n-0.84063963
o5
v0
n2
o5
v1
n2.51
o2
o2
n2.915
o2
o44
o16
o5
v0
n2
o2
n-0.076387037
o5
v0
n3
o5
v1
n1.915
o2
o2
n-1987.7
o2
o2
o2
n0.07749072839
v0
o5
v1
n4.0
o44
o0
o2
n-2.68
o5
o0
v0
n-0.9576
n2
o2
n-993.85
o5
o0
v1
n-1.05277
n2
o0
v1
n-1.05277
o2
o2
n4.0
o2
o44
o0
o2
n-2.68
o5
o0
v0
n-0.9576
n2
o2
n-993.85
o5
o0
v1
n-1.05277
n2
o2
n0.07749072839
v0
o5
v1
n3.0
o2
o2
n-1891.28
o2
o2
o2
n-0.13462033
v0
v1
o44
o0
o2
n-22.56
o5
o0
v0
n-0.9574
n2
o2
n-945.64
o5
o0
v1
n-1.05897
n2
o0
v1
n-1.05897
o2
o44
o0
o2
n-22.56
o5
o0
v0
n-0.9574
n2
o2
n-945.64
o5
o0
v1
n-1.05897
n2
o2
n-0.13462033
v0
o2
o2
n-2.28
o2
o2
o2
n-1.7359e-05
o5
v0
n3
o5
v1
n4.5
o44
o0
o2
n-4.14
o5
o0
v0
n-3.02
n2
o2
n-1.14
o5
o0
v1
n-1.852
n2
o0
v1
n-1.852
o2
o2
n4.5
o2
o44
o0
o2
n-4.14
o5
o0
v0
n-3.02
n2
o2
n-1.14
o5
o0
v1
n-1.852
n2
o2
n-1.7359e-05
o5
v0
n3
o5
v1
n3.5
o2
o2
n-1.7
o2
o2
o2
n0.0006254348
o5
v0
n3
o5
v1
n1.13
o44
o0
o2
n-1.21
o5
o0
v0
n-2.96
n2
o2
n-0.85
o5
o0
v1
n-0.919
n2
o0
v1
n-0.919
o2
o2
n1.13
o2
o44
o0
o2
n-1.21
o5
o0
v0
n-2.96
n2
o2
n-0.85
o5
o0
v1
n-0.919
n2
o2
n0.0006254348
o5
v0
n3
o5
v1
n0.1299999999999999
o2
o2
n-2.2
o2
o2
o2
n-3.7749264
v0
o5
v1
n0.643
o44
o0
o2
n-0.3574
o5
o0
v0
n0.243
n2
o2
n-1.1
o5
o0
v1
n-0.934
n2
o0
v1
n-0.934
o2
o2
n0.643
o2
o44
o0
o2
n-0.3574
o5
o0
v0
n0.243
n2
o2
n-1.1
o5
o0
v1
n-0.934
n2
o2
n-3.7749264
v0
o5
v1
n-0.357
o2
o2
n-0.976
o2
o2
o2
n0.01493697
o5
v0
n2
o5
v1
n1.623
o44
o0
o2
n-0.91
o5
o0
v0
n-2.2
n2
o2
n-0.488
o5
o0
v1
n-0.928
n2
o0
v1
n-0.928
o2
o2
n1.623
o2
o44
o0
o2
n-0.91
o5
o0
v0
n-2.2
n2
o2
n-0.488
o5
o0
v1
n-0.928
n2
o2
n0.01493697
o5
v0
n2
o5
v1
n0.623
o2
o2
n-4.86
o2
o2
o2
n-2.3739168
o5
v0
n2
o5
v1
n1.4395
o44
o0
o2
n-0.7995
o5
o0
v0
n-0.57
n2
o2
n-2.43
o5
o0
v1
n-1.2906
n2
o0
v1
n-1.2906
o2
o2
n1.4395
o2
o44
o0
o2
n-0.7995
o5
o0
v0
n-0.57
n2
o2
n-2.43
o5
o0
v1
n-1.2906
n2
o2
n-2.3739168
o5
v0
n2
o5
v1
n0.4395
o2
o2
n-4.183
o2
o2
o2
n2.4817542
v0
o5
v1
n3.1
o44
o0
o2
n-0.8175
o5
o0
v0
n-0.7527
n2
o2
n-2.0915
o5
o0
v1
n-1.083
n2
o0
v1
n-1.083
o2
o2
n3.1
o2
o44
o0
o2
n-0.8175
o5
o0
v0
n-0.7527
n2
o2
n-2.0915
o5
o0
v1
n-1.083
n2
o2
n2.4817542
v0
o5
v1
n2.1
o2
o2
n-2.973
o2
o2
o2
n-5.7844357
v0
o5
v1
n1.3
o44
o0
o2
n-0.6424
o5
o0
v0
n0.1274
n2
o2
n-1.4865
o5
o0
v1
n-1.2777
n2
o0
v1
n-1.2777
o2
o2
n1.3
o2
o44
o0
o2
n-0.6424
o5
o0
v0
n0.1274
n2
o2
n-1.4865
o5
o0
v1
n-1.2777
n2
o2
n-5.7844357
v0
o5
v1
n0.30000000000000004
o2
o2
n-3.416
o2
o2
o2
n6.212578
v0
o5
v1
n0.655
o44
o0
o2
n-0.42776
o5
o0
v0
n0.0726
n2
o2
n-1.708
o5
o0
v1
n-1.036
n2
o0
v1
n-1.036
o2
o2
n0.655
o2
o44
o0
o2
n-0.42776
o5
o0
v0
n0.0726
n2
o2
n-1.708
o5
o0
v1
n-1.036
n2
o2
n6.212578
v0
o5
v1
n-0.345
o2
o2
n-0.5924
o3
o2
o2
o2
n0.93739074
v0
o5
v1
n4.015
o44
o0
o2
n-2.8342
o5
o0
v0
n-0.44689
n2
o3
n1
o0
o2
n0.2962
o5
o0
v1
n-1.313
n2
n0.6826
o5
o0
o2
n0.2962
o5
o0
v1
n-1.313
n2
n0.6826
n2
o0
v1
n-1.313
o2
o2
n4.015
o2
o44
o0
o2
n-2.8342
o5
o0
v0
n-0.44689
n2
o3
n1
o0
o2
n0.2962
o5
o0
v1
n-1.313
n2
n0.6826
o2
n0.93739074
v0
o5
v1
n3.0149999999999997
o2
o2
n-0.7392
o3
o2
o2
o2
n-1.6909858
v0
o5
v1
n4.3315
o44
o0
o2
n-2.8452
o5
o0
v0
n-0.4478
n2
o3
n1
o0
o2
n0.3696
o5
o0
v1
n-1.108
n2
n1.244
o5
o0
o2
n0.3696
o5
o0
v1
n-1.108
n2
n1.244
n2
o0
v1
n-1.108
o2
o2
n4.3315
o2
o44
o0
o2
n-2.8452
o5
o0
v0
n-0.4478
n2
o3
n1
o0
o2
n0.3696
o5
o0
v1
n-1.108
n2
n1.244
o2
n-1.6909858
v0
o5
v1
n3.3315
O9 0
o54
52
o2
o2
n-0.4106746461816
v0
o5
v1
n-1.6179999999999999
o2
o2
n-0.01960827886433
o5
v0
n3
o5
v1
n-1.323
o2
o2
n5.582225
o2
o44
o16
o5
v0
n2
o2
n-0.076387037
o5
v0
n3
o5
v1
n0.915
o2
o2
n8.810099999999998
o2
o44
o16
o5
v0
n2
o2
n-0.84063963
o5
v0
n2
o5
v1
n1.5099999999999998
o2
o2
n0.06696899999999993
o2
o44
o2
n-1
v0
o2
n-0.27026327
o5
v0
n3
o5
v1
n-0.937
o2
n-3.416
o2
o2
o2
n6.212578
v0
o5
v1
n0.655
o44
o0
o2
n-0.42776
o5
o0
v0
n0.0726
n2
o2
n-1.708
o5
o0
v1
n-1.036
n2
o2
o2
n-3.416
o0
o2
o2
o2
n0.655
o5
v1
n-0.345
o2
n6.212578
v0
o44
o0
o2
n-0.42776
o5
o0
v0
n0.0726
n2
o2
n-1.708
o5
o0
v1
n-1.036
n2
o2
o2
o2
n-3.416
o0
v1
n-1.036
o2
o2
n6.212578
v0
o5
v1
n0.655
o44
o0
o2
n-0.42776
o5
o0
v0
n0.0726
n2
o2
n-1.708
o5
o0
v1
n-1.036
n2
o0
v1
n-1.036
o2
o2
n-0.22597499999999998
o2
o44
o0
o2
n-0.42776
o5
o0
v0
n0.0726
n2
o2
n-1.708
o5
o0
v1
n-1.036
n2
o2
n6.212578
v0
o5
v1
n-1.345
o2
o2
n0.655
o2
o2
o2
n-3.416
o0
v1
n-1.036
o44
o0
o2
n-0.42776
o5
o0
v0
n0.0726
n2
o2
n-1.708
o5
o0
v1
n-1.036
n2
o2
n6.212578
v0
o5
v1
n-0.345
o2
o2
n0.39000000000000007
o2
o44
o0
o2
n-0.6424
o5
o0
v0
n0.1274
n2
o2
n-1.4865
o5
o0
v1
n-1.2777
n2
o2
n-5.7844357
v0
o5
v1
n-0.7
o2
n-2.973
o2
o2
o2
n-5.7844357
v0
o5
v1
n1.3
o44
o0
o2
n-0.6424
o5
o0
v0
n0.1274
n2
o2
n-1.4865
o5
o0
v1
n-1.2777
n2
o2
o2
n-2.973
o0
o2
o2
o2
n1.3
o5
v1
n0.30000000000000004
o2
n-5.7844357
v0
o44
o0
o2
n-0.6424
o5
o0
v0
n0.1274
n2
o2
n-1.4865
o5
o0
v1
n-1.2777
n2
o2
o2
o2
n-2.973
o0
v1
n-1.2777
o2
o2
n-5.7844357
v0
o5
v1
n1.3
o44
o0
o2
n-0.6424
o5
o0
v0
n0.1274
n2
o2
n-1.4865
o5
o0
v1
n-1.2777
n2
o0
v1
n-1.2777
o2
o2
n1.3
o2
o2
o2
n-2.973
o0
v1
n-1.2777
o44
o0
o2
n-0.6424
o5
o0
v0
n0.1274
n2
o2
n-1.4865
o5
o0
v1
n-1.2777
n2
o2
n-5.7844357
v0
o5
v1
n0.30000000000000004
o2
o2
n6.510000000000001
o2
o44
o0
o2
n-0.8175
o5
o0
v0
n-0.7527
n2
o2
n-2.0915
o5
o0
v1
n-1.083
n2
o2
n2.4817542
v0
o5
v1
n1.1
o2
n-4.183
o2
o2
o2
n2.4817542
v0
o5
v1
n3.1
o44
o0
o2
n-0.8175
o5
o0
v0
n-0.7527
n2
o2
n-2.0915
o5
o0
v1
n-1.083
n2
o2
o2
n-4.183
o0
o2
o2
o2
n3.1
o5
v1
n2.1
o2
n2.4817542
v0
o44
o0
o2
n-0.8175
o5
o0
v0
n-0.7527
n2
o2
n-2.0915
o5
o0
v1
n-1.083
n2
o2
o2
o2
n-4.183
o0
v1
n-1.083
o2
o2
n2.4817542
v0
o5
v1
n3.1
o44
o0
o2
n-0.8175
o5
o0
v0
n-0.7527
n2
o2
n-2.0915
o5
o0
v1
n-1.083
n2
o0
v1
n-1.083
o2
o2
n3.1
o2
o2
o2
n-4.183
o0
v1
n-1.083
o44
o0
o2
n-0.8175
o5
o0
v0
n-0.7527
n2
o2
n-2.0915
o5
o0
v1
n-1.083
n2
o2
n2.4817542
v0
o5
v1
n2.1
o2
o2
n0.63266025
o2
o44
o0
o2
n-0.7995
o5
o0
v0
n-0.57
n2
o2
n-2.43
o5
o0
v1
n-1.2906
n2
o2
n-2.3739168
o5
v0
n2
o5
v1
n-0.5605
o2
n-4.86
o2
o2
o2
n-2.3739168
o5
v0
n2
o5
v1
n1.4395
o44
o0
o2
n-0.7995
o5
o0
v0
n-0.57
n2
o2
n-2.43
o5
o0
v1
n-1.2906
n2
o2
o2
n-4.86
o0
o2
o2
o2
n1.4395
o5
v1
n0.4395
o2
n-2.3739168
o5
v0
n2
o44
o0
o2
n-0.7995
o5
o0
v0
n-0.57
n2
o2
n-2.43
o5
o0
v1
n-1.2906
n2
o2
o2
o2
n-4.86
o0
v1
n-1.2906
o2
o2
n-2.3739168
o5
v0
n2
o5
v1
n1.4395
o44
o0
o2
n-0.7995
o5
o0
v0
n-0.57
n2
o2
n-2.43
o5
o0
v1
n-1.2906
n2
o0
v1
n-1.2906
o2
o2
n1.4395
o2
o2
o2
n-4.86
o0
v1
n-1.2906
o44
o0
o2
n-0.7995
o5
o0
v0
n-0.57
n2
o2
n-2.43
o5
o0
v1
n-1.2906
n2
o2
n-2.3739168
o5
v0
n2
o5
v1
n0.4395
o2
o2
n1.011129
o2
o44
o0
o2
n-0.91
o5
o0
v0
n-2.2
n2
o2
n-0.488
o5
o0
v1
n-0.928
n2
o2
n0.01493697
o5
v0
n2
o5
v1
n-0.377
o2
n-0.976
o2
o2
o2
n0.01493697
o5
v0
n2
o5
v1
n1.623
o44
o0
o2
n-0.91
o5
o0
v0
n-2.2
n2
o2
n-0.488
o5
o0
v1
n-0.928
n2
o2
o2
n-0.976
o0
o2
o2
o2
n1.623
o5
v1
n0.623
o2
n0.01493697
o5
v0
n2
o44
o0
o2
n-0.91
o5
o0
v0
n-2.2
n2
o2
n-0.488
o5
o0
v1
n-0.928
n2
o2
o2
o2
n-0.976
o0
v1
n-0.928
o2
o2
n0.01493697
o5
v0
n2
o5
v1
n1.623
o44
o0
o2
n-0.91
o5
o0
v0
n-2.2
n2
o2
n-0.488
o5
o0
v1
n-0.928
n2
o0
v1
n-0.928
o2
o2
n1.623
o2
o2
o2
n-0.976
o0
v1
n-0.928
o44
o0
o2
n-0.91
o5
o0
v0
n-2.2
n2
o2
n-0.488
o5
o0
v1
n-0.928
n2
o2
n0.01493697
o5
v0
n2
o5
v1
n0.623
o2
o2
n-0.229551
o2
o44
o0
o2
n-0.3574
o5
o0
v0
n0.243
n2
o2
n-1.1
o5
o0
v1
n-0.934
n2
o2
n-3.7749264
v0
o5
v1
n-1.357
o2
n-2.2
o2
o2
o2
n-3.7749264
v0
o5
v1
n0.643
o44
o0
o2
n-0.3574
o5
o0
v0
n0.243
n2
o2
n-1.1
o5
o0
v1
n-0.934
n2
o2
o2
n-2.2
o0
o2
o2
o2
n0.643
o5
v1
n-0.357
o2
n-3.7749264
v0
o44
o0
o2
n-0.3574
o5
o0
v0
n0.243
n2
o2
n-1.1
o5
o0
v1
n-0.934
n2
o2
o2
o2
n-2.2
o0
v1
n-0.934
o2
o2
n-3.7749264
v0
o5
v1
n0.643
o44
o0
o2
n-0.3574
o5
o0
v0
n0.243
n2
o2
n-1.1
o5
o0
v1
n-0.934
n2
o0
v1
n-0.934
o2
o2
n0.643
o2
o2
o2
n-2.2
o0
v1
n-0.934
o44
o0
o2
n-0.3574
o5
o0
v0
n0.243
n2
o2
n-1.1
o5
o0
v1
n-0.934
n2
o2
n-3.7749264
v0
o5
v1
n-0.357
o2
o2
n0.14689999999999986
o2
o44
o0
o2
n-1.21
o5
o0
v0
n-2.96
n2
o2
n-0.85
o5
o0
v1
n-0.919
n2
o2
n0.0006254348
o5
v0
n3
o5
v1
n-0.8700000000000001
o2
n-1.7
o2
o2
o2
n0.0006254348
o5
v0
n3
o5
v1
n1.13
o44
o0
o2
n-1.21
o5
o0
v0
n-2.96
n2
o2
n-0.85
o5
o0
v1
n-0.919
n2
o2
o2
n-1.7
o0
o2
o2
o2
n1.13
o5
v1
n0.1299999999999999
o2
n0.0006254348
o5
v0
n3
o44
o0
o2
n-1.21
o5
o0
v0
n-2.96
n2
o2
n-0.85
o5
o0
v1
n-0.919
n2
o2
o2
o2
n-1.7
o0
v1
n-0.919
o2
o2
n0.0006254348
o5
v0
n3
o5
v1
n1.13
o44
o0
o2
n-1.21
o5
o0
v0
n-2.96
n2
o2
n-0.85
o5
o0
v1
n-0.919
n2
o0
v1
n-0.919
o2
o2
n1.13
o2
o2
o2
n-1.7
o0
v1
n-0.919
o44
o0
o2
n-1.21
o5
o0
v0
n-2.96
n2
o2
n-0.85
o5
o0
v1
n-0.919
n2
o2
n0.0006254348
o5
v0
n3
o5
v1
n0.1299999999999999
o2
o2
n15.75
o2
o44
o0
o2
n-4.14
o5
o0
v0
n-3.02
n2
o2
n-1.14
o5
o0
v1
n-1.852
n2
o2
n-1.7359e-05
o5
v0
n3
o5
v1
n2.5
o2
n-2.28
o2
o2
o2
n-1.7359e-05
o5
v0
n3
o5
v1
n4.5
o44
o0
o2
n-4.14
o5
o0
v0
n-3.02
n2
o2
n-1.14
o5
o0
v1
n-1.852
n2
o2
o2
n-2.28
o0
o2
o2
o2
n4.5
o5
v1
n3.5
o2
n-1.7359e-05
o5
v0
n3
o44
o0
o2
n-4.14
o5
o0
v0
n-3.02
n2
o2
n-1.14
o5
o0
v1
n-1.852
n2
o2
o2
o2
n-2.28
o0
v1
n-1.852
o2
o2
n-1.7359e-05
o5
v0
n3
o5
v1
n4.5
o44
o0
o2
n-4.14
o5
o0
v0
n-3.02
n2
o2
n-1.14
o5
o0
v1
n-1.852
n2
o0
v1
n-1.852
o2
o2
n4.5
o2
o2
o2
n-2.28
o0
v1
n-1.852
o44
o0
o2
n-4.14
o5
o0
v0
n-3.02
n2
o2
n-1.14
o5
o0
v1
n-1.852
n2
o2
n-1.7359e-05
o5
v0
n3
o5
v1
n3.5
o2
n-1891.28
o2
o2
o2
n-0.13462033
v0
v1
o44
o0
o2
n-22.56
o5
o0
v0
n-0.9574
n2
o2
n-945.64
o5
o0
v1
n-1.05897
n2
o2
o2
n-1891.28
o0
o2
o2
n-0.13462033
v0
o44
o0
o2
n-22.56
o5
o0
v0
n-0.9574
n2
o2
n-945.64
o5
o0
v1
n-1.05897
n2
o2
o2
o2
n-1891.28
o0
v1
n-1.05897
o2
o2
n-0.13462033
v0
v1
o44
o0
o2
n-22.56
o5
o0
v0
n-0.9574
n2
o2
n-945.64
o5
o0
v1
n-1.05897
n2
o0
v1
n-1.05897
o2
o2
o2
n-1891.28
o0
v1
n-1.05897
o44
o0
o2
n-22.56
o5
o0
v0
n-0.9574
n2
o2
n-945.64
o5
o0
v1
n-1.05897
n2
o2
n-0.13462033
v0
o2
o2
n12.0
o2
o44
o0
o2
n-2.68
o5
o0
v0
n-0.9576
n2
o2
n-993.85
o5
o0
v1
n-1.05277
n2
o2
n0.07749072839
v0
o5
v1
n2.0
o2
n-1987.7
o2
o2
o2
n0.07749072839
v0
o5
v1
n4.0
o44
o0
o2
n-2.68
o5
o0
v0
n-0.9576
n2
o2
n-993.85
o5
o0
v1
n-1.05277
n2
o2
o2
n-1987.7
o0
o2
o2
o2
n4.0
o5
v1
n3.0
o2
n0.07749072839
v0
o44
o0
o2
n-2.68
o5
o0
v0
n-0.9576
n2
o2
n-993.85
o5
o0
v1
n-1.05277
n2
o2
o2
o2
n-1987.7
o0
v1
n-1.05277
o2
o2
n0.07749072839
v0
o5
v1
n4.0
o44
o0
o2
n-2.68
o5
o0
v0
n-0.9576
n2
o2
n-993.85
o5
o0
v1
n-1.05277
n2
o0
v1
n-1.05277
o2
o2
n4.0
o2
o2
o2
n-1987.7
o0
v1
n-1.05277
o44
o0
o2
n-2.68
o5
o0
v0
n-0.9576
n2
o2
n-993.85
o5
o0
v1
n-1.05277
n2
o2
n0.07749072839
v0
o5
v1
n3.0
o2
n-0.7392
o3
o2
o2
o2
n-1.6909858
v0
o5
v1
n4.3315
o44
o0
o2
n-2.8452
o5
o0
v0
n-0.4478
n2
o3
n1
o0
o2
n0.3696
o5
o0
v1
n-1.108
n2
n1.244
o5
o0
o2
n0.3696
o5
o0
v1
n-1.108
n2
n1.244
n2
o2
o2
n0.7392
o0
o2
o2
n-2
o3
o2
o2
n-0.7392
o0
v1
n-1.108
o2
o2
o2
n-1.6909858
v0
o5
v1
n4.3315
o44
o0
o2
n-2.8452
o5
o0
v0
n-0.4478
n2
o3
n1
o0
o2
n0.3696
o5
o0
v1
n-1.108
n2
n1.244
o5
o5
o0
o2
n0.3696
o5
o0
v1
n-1.108
n2
n1.244
n2
n2
o0
o2
n0.3696
o5
o0
v1
n-1.108
n2
n1.244
o16
o3
o0
o2
o2
o2
n4.3315
o5
v1
n3.3315
o2
n-1.6909858
v0
o44
o0
o2
n-2.8452
o5
o0
v0
n-0.4478
n2
o3
n1
o0
o2
n0.3696
o5
o0
v1
n-1.108
n2
n1.244
o2
o2
o2
o2
n-0.7392
o0
v1
n-1.108
o3
n1
o5
o0
o2
n0.3696
o5
o0
v1
n-1.108
n2
n1.244
n2
o2
o2
n-1.6909858
v0
o5
v1
n4.3315
o44
o0
o2
n-2.8452
o5
o0
v0
n-0.4478
n2
o3
n1
o0
o2
n0.3696
o5
o0
v1
n-1.108
n2
n1.244
o5
o0
o2
n0.3696
o5
o0
v1
n-1.108
n2
n1.244
n2
o0
v1
n-1.108
o2
o2
n14.43039225
o2
o44
o0
o2
n-2.8452
o5
o0
v0
n-0.4478
n2
o3
n1
o0
o2
n0.3696
o5
o0
v1
n-1.108
n2
n1.244
o2
n-1.6909858
v0
o5
v1
n2.3315
o2
o2
n4.3315
o2
o2
o2
o2
n-0.7392
o0
v1
n-1.108
o3
n1
o5
o0
o2
n0.3696
o5
o0
v1
n-1.108
n2
n1.244
n2
o44
o0
o2
n-2.8452
o5
o0
v0
n-0.4478
n2
o3
n1
o0
o2
n0.3696
o5
o0
v1
n-1.108
n2
n1.244
o2
n-1.6909858
v0
o5
v1
n3.3315
o2
o2
n12.105224999999997
o2
o44
o0
o2
n-2.8342
o5
o0
v0
n-0.44689
n2
o3
n1
o0
o2
n0.2962
o5
o0
v1
n-1.313
n2
n0.6826
o2
n0.93739074
v0
o5
v1
n2.0149999999999997
o2
n-0.5924
o3
o2
o2
o2
n0.93739074
v0
o5
v1
n4.015
o44
o0
o2
n-2.8342
o5
o0
v0
n-0.44689
n2
o3
n1
o0
o2
n0.2962
o5
o0
v1
n-1.313
n2
n0.6826
o5
o0
o2
n0.2962
o5
o0
v1
n-1.313
n2
n0.6826
n2
o2
o2
n0.5924
o0
o2
o2
n-2
o3
o2
o2
n-0.5924
o0
v1
n-1.313
o2
o2
o2
n0.93739074
v0
o5
v1
n4.015
o44
o0
o2
n-2.8342
o5
o0
v0
n-0.44689
n2
o3
n1
o0
o2
n0.2962
o5
o0
v1
n-1.313
n2
n0.6826
o5
o5
o0
o2
n0.2962
o5
o0
v1
n-1.313
n2
n0.6826
n2
n2
o0
o2
n0.2962
o5
o0
v1
n-1.313
n2
n0.6826
o16
o3
o0
o2
o2
o2
n4.015
o5
v1
n3.0149999999999997
o2
n0.93739074
v0
o44
o0
o2
n-2.8342
o5
o0
v0
n-0.44689
n2
o3
n1
o0
o2
n0.2962
o5
o0
v1
n-1.313
n2
n0.6826
o2
o2
o2
o2
n-0.5924
o0
v1
n-1.313
o3
n1
o5
o0
o2
n0.2962
o5
o0
v1
n-1.313
n2
n0.6826
n2
o2
o2
n0.93739074
v0
o5
v1
n4.015
o44
o0
o2
n-2.8342
o5
o0
v0
n-0.44689
n2
o3
n1
o0
o2
n0.2962
o5
o0
v1
n-1.313
n2
n0.6826
o5
o0
o2
n0.2962
o5
o0
v1
n-1.313
n2
n0.6826
n2
o0
v1
n-1.313
o2
o2
n4.015
o2
o2
o2
o2
n-0.5924
o0
v1
n-1.313
o3
n1
o5
o0
o2
n0.2962
o5
o0
v1
n-1.313
n2
n0.6826
n2
o44
o0
o2
n-2.8342
o5
o0
v0
n-0.44689
n2
o3
n1
o0
o2
n0.2962
o5
o0
v1
n-1.313
n2
n0.6826
o2
n0.93739074
v0
o5
v1
n3.0149999999999997
O10 0
o0
o54
31
o2
n0.024528928
o5
v0
n3
o2
n0.6645220812
o5
v1
n-0.618
o2
o2
n0.18212023713
o5
v0
n2
o5
v1
n-0.32299999999999995
o2
o2
n2.915
o0
o2
o2
n-0.22916111100000003
o5
v0
n2
o44
o16
o5
v0
n2
o2
o2
o2
n-2
v0
o44
o16
o5
v0
n2
o2
n-0.076387037
o5
v0
n3
o5
v1
n1.915
o2
o2
n3.51
o0
o2
o2
n-1.68127926
v0
o44
o16
o5
v0
n2
o2
o2
o2
n-2
v0
o44
o16
o5
v0
n2
o2
n-0.84063963
o5
v0
n2
o5
v1
n2.51
o2
o2
n1.063
o0
o2
o2
n-0.8107898099999999
o5
v0
n2
o44
o2
n-1
v0
o2
o16
o44
o2
n-1
v0
o2
n-0.27026327
o5
v0
n3
o5
v1
n0.06299999999999994
o2
o2
n-3.416
o0
o2
o2
n6.212578
o5
v1
n0.655
o44
o0
o2
n-0.42776
o5
o0
v0
n0.0726
n2
o2
n-1.708
o5
o0
v1
n-1.036
n2
o2
o2
o2
n-0.85552
o0
v0
n0.0726
o2
o2
n6.212578
v0
o5
v1
n0.655
o44
o0
o2
n-0.42776
o5
o0
v0
n0.0726
n2
o2
n-1.708
o5
o0
v1
n-1.036
n2
o0
v1
n-1.036
o2
o2
n0.655
o0
o2
n6.212578
o44
o0
o2
n-0.42776
o5
o0
v0
n0.0726
n2
o2
n-1.708
o5
o0
v1
n-1.036
n2
o2
o2
o2
n-0.85552
o0
v0
n0.0726
o44
o0
o2
n-0.42776
o5
o0
v0
n0.0726
n2
o2
n-1.708
o5
o0
v1
n-1.036
n2
o2
n6.212578
v0
o5
v1
n-0.345
o2
o2
n-2.973
o0
o2
o2
n-5.7844357
o5
v1
n1.3
o44
o0
o2
n-0.6424
o5
o0
v0
n0.1274
n2
o2
n-1.4865
o5
o0
v1
n-1.2777
n2
o2
o2
o2
n-1.2848
o0
v0
n0.1274
o2
o2
n-5.7844357
v0
o5
v1
n1.3
o44
o0
o2
n-0.6424
o5
o0
v0
n0.1274
n2
o2
n-1.4865
o5
o0
v1
n-1.2777
n2
o0
v1
n-1.2777
o2
o2
n1.3
o0
o2
n-5.7844357
o44
o0
o2
n-0.6424
o5
o0
v0
n0.1274
n2
o2
n-1.4865
o5
o0
v1
n-1.2777
n2
o2
o2
o2
n-1.2848
o0
v0
n0.1274
o44
o0
o2
n-0.6424
o5
o0
v0
n0.1274
n2
o2
n-1.4865
o5
o0
v1
n-1.2777
n2
o2
n-5.7844357
v0
o5
v1
n0.30000000000000004
o2
o2
n-4.183
o0
o2
o2
n2.4817542
o5
v1
n3.1
o44
o0
o2
n-0.8175
o5
o0
v0
n-0.7527
n2
o2
n-2.0915
o5
o0
v1
n-1.083
n2
o2
o2
o2
n-1.635
o0
v0
n-0.7527
o2
o2
n2.4817542
v0
o5
v1
n3.1
o44
o0
o2
n-0.8175
o5
o0
v0
n-0.7527
n2
o2
n-2.0915
o5
o0
v1
n-1.083
n2
o0
v1
n-1.083
o2
o2
n3.1
o0
o2
n2.4817542
o44
o0
o2
n-0.8175
o5
o0
v0
n-0.7527
n2
o2
n-2.0915
o5
o0
v1
n-1.083
n2
o2
o2
o2
n-1.635
o0
v0
n-0.7527
o44
o0
o2
n-0.8175
o5
o0
v0
n-0.7527
n2
o2
n-2.0915
o5
o0
v1
n-1.083
n2
o2
n2.4817542
v0
o5
v1
n2.1
o2
o2
n-4.86
o0
o2
o2
o2
n-4.7478336
v0
o5
v1
n1.4395
o44
o0
o2
n-0.7995
o5
o0
v0
n-0.57
n2
o2
n-2.43
o5
o0
v1
n-1.2906
n2
o2
o2
o2
n-1.599
o0
v0
n-0.57
o2
o2
n-2.3739168
o5
v0
n2
o5
v1
n1.4395
o44
o0
o2
n-0.7995
o5
o0
v0
n-0.57
n2
o2
n-2.43
o5
o0
v1
n-1.2906
n2
o0
v1
n-1.2906
o2
o2
n1.4395
o0
o2
o2
n-4.7478336
v0
o44
o0
o2
n-0.7995
o5
o0
v0
n-0.57
n2
o2
n-2.43
o5
o0
v1
n-1.2906
n2
o2
o2
o2
n-1.599
o0
v0
n-0.57
o44
o0
o2
n-0.7995
o5
o0
v0
n-0.57
n2
o2
n-2.43
o5
o0
v1
n-1.2906
n2
o2
n-2.3739168
o5
v0
n2
o5
v1
n0.4395
o2
o2
n-0.976
o0
o2
o2
o2
n0.02987394
v0
o5
v1
n1.623
o44
o0
o2
n-0.91
o5
o0
v0
n-2.2
n2
o2
n-0.488
o5
o0
v1
n-0.928
n2
o2
o2
o2
n-1.82
o0
v0
n-2.2
o2
o2
n0.01493697
o5
v0
n2
o5
v1
n1.623
o44
o0
o2
n-0.91
o5
o0
v0
n-2.2
n2
o2
n-0.488
o5
o0
v1
n-0.928
n2
o0
v1
n-0.928
o2
o2
n1.623
o0
o2
o2
n0.02987394
v0
o44
o0
o2
n-0.91
o5
o0
v0
n-2.2
n2
o2
n-0.488
o5
o0
v1
n-0.928
n2
o2
o2
o2
n-1.82
o0
v0
n-2.2
o44
o0
o2
n-0.91
o5
o0
v0
n-2.2
n2
o2
n-0.488
o5
o0
v1
n-0.928
n2
o2
n0.01493697
o5
v0
n2
o5
v1
n0.623
o2
o2
n-2.2
o0
o2
o2
n-3.7749264
o5
v1
n0.643
o44
o0
o2
n-0.3574
o5
o0
v0
n0.243
n2
o2
n-1.1
o5
o0
v1
n-0.934
n2
o2
o2
o2
n-0.7148
o0
v0
n0.243
o2
o2
n-3.7749264
v0
o5
v1
n0.643
o44
o0
o2
n-0.3574
o5
o0
v0
n0.243
n2
o2
n-1.1
o5
o0
v1
n-0.934
n2
o0
v1
n-0.934
o2
o2
n0.643
o0
o2
n-3.7749264
o44
o0
o2
n-0.3574
o5
o0
v0
n0.243
n2
o2
n-1.1
o5
o0
v1
n-0.934
n2
o2
o2
o2
n-0.7148
o0
v0
n0.243
o44
o0
o2
n-0.3574
o5
o0
v0
n0.243
n2
o2
n-1.1
o5
o0
v1
n-0.934
n2
o2
n-3.7749264
v0
o5
v1
n-0.357
o2
o2
n-1.7
o0
o2
o2
o2
n0.0018763043999999998
o5
v0
n2
o5
v1
n1.13
o44
o0
o2
n-1.21
o5
o0
v0
n-2.96
n2
o2
n-0.85
o5
o0
v1
n-0.919
n2
o2
o2
o2
n-2.42
o0
v0
n-2.96
o2
o2
n0.0006254348
o5
v0
n3
o5
v1
n1.13
o44
o0
o2
n-1.21
o5
o0
v0
n-2.96
n2
o2
n-0.85
o5
o0
v1
n-0.919
n2
o0
v1
n-0.919
o2
o2
n1.13
o0
o2
o2
n0.0018763043999999998
o5
v0
n2
o44
o0
o2
n-1.21
o5
o0
v0
n-2.96
n2
o2
n-0.85
o5
o0
v1
n-0.919
n2
o2
o2
o2
n-2.42
o0
v0
n-2.96
o44
o0
o2
n-1.21
o5
o0
v0
n-2.96
n2
o2
n-0.85
o5
o0
v1
n-0.919
n2
o2
n0.0006254348
o5
v0
n3
o5
v1
n0.1299999999999999
o2
o2
n-2.28
o0
o2
o2
o2
n-5.2077e-05
o5
v0
n2
o5
v1
n4.5
o44
o0
o2
n-4.14
o5
o0
v0
n-3.02
n2
o2
n-1.14
o5
o0
v1
n-1.852
n2
o2
o2
o2
n-8.28
o0
v0
n-3.02
o2
o2
n-1.7359e-05
o5
v0
n3
o5
v1
n4.5
o44
o0
o2
n-4.14
o5
o0
v0
n-3.02
n2
o2
n-1.14
o5
o0
v1
n-1.852
n2
o0
v1
n-1.852
o2
o2
n4.5
o0
o2
o2
n-5.2077e-05
o5
v0
n2
o44
o0
o2
n-4.14
o5
o0
v0
n-3.02
n2
o2
n-1.14
o5
o0
v1
n-1.852
n2
o2
o2
o2
n-8.28
o0
v0
n-3.02
o44
o0
o2
n-4.14
o5
o0
v0
n-3.02
n2
o2
n-1.14
o5
o0
v1
n-1.852
n2
o2
n-1.7359e-05
o5
v0
n3
o5
v1
n3.5
o2
n-0.13462033
o44
o0
o2
n-22.56
o5
o0
v0
n-0.9574
n2
o2
n-945.64
o5
o0
v1
n-1.05897
n2
o2
o2
n-1891.28
o0
o2
o2
n-0.13462033
v1
o44
o0
o2
n-22.56
o5
o0
v0
n-0.9574
n2
o2
n-945.64
o5
o0
v1
n-1.05897
n2
o2
o2
o2
n-45.12
o0
v0
n-0.9574
o2
o2
n-0.13462033
v0
v1
o44
o0
o2
n-22.56
o5
o0
v0
n-0.9574
n2
o2
n-945.64
o5
o0
v1
n-1.05897
n2
o0
v1
n-1.05897
o2
o2
o2
n-45.12
o0
v0
n-0.9574
o44
o0
o2
n-22.56
o5
o0
v0
n-0.9574
n2
o2
n-945.64
o5
o0
v1
n-1.05897
n2
o2
n-0.13462033
v0
o2
o2
n-1987.7
o0
o2
o2
n0.07749072839
o5
v1
n4.0
o44
o0
o2
n-2.68
o5
o0
v0
n-0.9576
n2
o2
n-993.85
o5
o0
v1
n-1.05277
n2
o2
o2
o2
n-5.36
o0
v0
n-0.9576
o2
o2
n0.07749072839
v0
o5
v1
n4.0
o44
o0
o2
n-2.68
o5
o0
v0
n-0.9576
n2
o2
n-993.85
o5
o0
v1
n-1.05277
n2
o0
v1
n-1.05277
o2
o2
n4.0
o0
o2
n0.07749072839
o44
o0
o2
n-2.68
o5
o0
v0
n-0.9576
n2
o2
n-993.85
o5
o0
v1
n-1.05277
n2
o2
o2
o2
n-5.36
o0
v0
n-0.9576
o44
o0
o2
n-2.68
o5
o0
v0
n-0.9576
n2
o2
n-993.85
o5
o0
v1
n-1.05277
n2
o2
n0.07749072839
v0
o5
v1
n3.0
o2
o2
n-0.7392
o3
o0
o2
o2
n-1.6909858
o5
v1
n4.3315
o44
o0
o2
n-2.8452
o5
o0
v0
n-0.4478
n2
o3
n1
o0
o2
n0.3696
o5
o0
v1
n-1.108
n2
n1.244
o2
o2
o2
n-5.6904
o0
v0
n-0.4478
o2
o2
n-1.6909858
v0
o5
v1
n4.3315
o44
o0
o2
n-2.8452
o5
o0
v0
n-0.4478
n2
o3
n1
o0
o2
n0.3696
o5
o0
v1
n-1.108
n2
n1.244
o5
o0
o2
n0.3696
o5
o0
v1
n-1.108
n2
n1.244
n2
o0
v1
n-1.108
o2
o2
n4.3315
o0
o2
n-1.6909858
o44
o0
o2
n-2.8452
o5
o0
v0
n-0.4478
n2
o3
n1
o0
o2
n0.3696
o5
o0
v1
n-1.108
n2
n1.244
o2
o2
o2
n-5.6904
o0
v0
n-0.4478
o44
o0
o2
n-2.8452
o5
o0
v0
n-0.4478
n2
o3
n1
o0
o2
n0.3696
o5
o0
v1
n-1.108
n2
n1.244
o2
n-1.6909858
v0
o5
v1
n3.3315
o2
o2
n-0.5924
o3
o0
o2
o2
n0.93739074
o5
v1
n4.015
o44
o0
o2
n-2.8342
o5
o0
v0
n-0.44689
n2
o3
n1
o0
o2
n0.2962
o5
o0
v1
n-1.313
n2
n0.6826
o2
o2
o2
n-5.6684
o0
v0
n-0.44689
o2
o2
n0.93739074
v0
o5
v1
n4.015
o44
o0
o2
n-2.8342
o5
o0
v0
n-0.44689
n2
o3
n1
o0
o2
n0.2962
o5
o0
v1
n-1.313
n2
n0.6826
o5
o0
o2
n0.2962
o5
o0
v1
n-1.313
n2
n0.6826
n2
o0
v1
n-1.313
o2
o2
n4.015
o0
o2
n0.93739074
o44
o0
o2
n-2.8342
o5
o0
v0
n-0.44689
n2
o3
n1
o0
o2
n0.2962
o5
o0
v1
n-1.313
n2
n0.6826
o2
o2
o2
n-5.6684
o0
v0
n-0.44689
o44
o0
o2
n-2.8342
o5
o0
v0
n-0.44689
n2
o3
n1
o0
o2
n0.2962
o5
o0
v1
n-1.313
n2
n0.6826
o2
n0.93739074
v0
o5
v1
n3.0149999999999997
n-2.2261792
O11 0
o0
o54
6
o2
n0.051236
o5
o0
o16
o3
n1
v1
n1
n0.07
o2
n3.7925
o5
o0
o16
o3
n1
v1
n1
n0.46
o2
n-3.5929
o5
o0
o16
o3
n1
v1
n1
n0.77
o2
n4.6409
o5
o0
o16
o3
n1
v1
n1
n1.05
o2
n-1.9893
o5
o0
o16
o3
n1
v1
n1
n1.25
o2
n1.5978
o5
o0
o16
o3
n1
v1
n1
n8.0
n1.0
O12 0
o44
o54
6
o2
n-0.089966
o5
o0
o16
o3
n1
v1
n1
n0.112
o2
n-3.8722
o5
o0
o16
o3
n1
v1
n1
n0.473
o2
n-8.1183
o5
o0
o16
o3
n1
v1
n1
n1.5
o2
n-25.293
o5
o0
o16
o3
n1
v1
n1
n3.875
o2
n-54.279
o5
o0
o16
o3
n1
v1
n1
n8.0
o2
n-400.83
o5
o0
o16
o3
n1
v1
n1
n20.0
O13 0
n0.0
x2
0 1.00000001
1 1.0
r
b
3
3
k1
0
G0 2
0 0
1 5.60101151987913
G1 1
0 0
G2 1
0 0
G3 1
1 0
G4 1
1 0
G5 2
0 0
1 0
G6 2
0 0
1 -2.2261792
G7 2
0 0
1 -0.60255106
G8 2
0 -2.2261792
1 0
G9 2
0 0
1 0
G10 2
0 -0.60255106
1 0
G11 1
1 0
G12 1
1 0
